experiment/data/hgs-res/Vrp-Set-F-n72/Vrp-Set-F-n72-hgs/0.hgs1.vrp
NAME : 0
COMMENT : CVRP Instance
TYPE : CVRP
DIMENSION : 72
EDGE_WEIGHT_TYPE : EUC_2D
CAPACITY : 30000
NODE_COORD_SECTION
1	0.0	0.0
2	-12.0	-6.0
3	-15.0	-5.0
4	-1.0	-18.0
5	2.0	-21.0
6	-1.0	-17.0
7	-9.0	-12.0
8	2.0	-22.0
9	1.0	-21.0
10	7.0	-25.0
11	-7.0	-17.0
12	-11.0	-5.0
13	-14.0	-9.0
14	-14.0	-8.0
15	-11.0	-2.0
16	-14.0	-5.0
17	-15.0	-9.0
18	-15.0	-8.0
19	-9.0	-6.0
20	-14.0	-4.0
21	3.0	6.0
22	5.0	9.0
23	5.0	10.0
24	2.0	8.0
25	1.0	9.0
26	1.0	10.0
27	2.0	9.0
28	6.0	14.0
29	5.0	12.0
30	3.0	7.0
31	4.0	8.0
32	-6.0	1.0
33	-6.0	2.0
34	-8.0	-2.0
35	-7.0	2.0
36	-7.0	-3.0
37	-7.0	-2.0
38	-20.0	12.0
39	-20.0	13.0
40	-12.0	10.0
41	-20.0	15.0
42	-6.0	8.0
43	2.0	21.0
44	2.0	22.0
45	1.0	21.0
46	-1.0	24.0
47	1.0	22.0
48	-2.0	20.0
49	-2.0	21.0
50	-4.0	18.0
51	-4.0	19.0
52	-5.0	18.0
53	-5.0	26.0
54	1.0	23.0
55	-6.0	5.0
56	-6.0	6.0
57	-9.0	6.0
58	-9.0	7.0
59	-12.0	5.0
60	-12.0	6.0
61	-11.0	3.0
62	-11.0	4.0
63	-14.0	4.0
64	-14.0	5.0
65	-15.0	4.0
66	-15.0	5.0
67	-16.0	7.0
68	-16.0	8.0
69	-15.0	10.0
70	-20.0	10.0
71	-5.0	19.0
72	-9.0	-11.0
DEMAND_SECTION
1	0
2	7063
3	51
4	23
5	3074
6	349
7	1047
8	698
9	3001
10	31
11	1135
12	21611
13	57
14	51
15	551
16	179
17	6
18	528
19	2832
20	1514
21	889
22	2554
23	1215
24	1810
25	3050
26	4
27	1563
28	741
29	1532
30	709
31	1022
32	883
33	1689
34	10235
35	29
36	2894
37	450
38	411
39	207
40	496
41	1021
42	117
43	46
44	8
45	18
46	561
47	1877
48	3542
49	801
50	967
51	62
52	1366
53	230
54	4
55	12
56	145
57	7149
58	2250
59	383
60	134
61	1947
62	182
63	3934
64	468
65	18
66	133
67	2340
68	754
69	1264
70	806
71	3665
72	2452
DEPOT_SECTION
1
-1
EOF
