experiment/data/hgs-res/Vrp-Set-F-n72/Vrp-Set-F-n72-hgs/0.hgs1.tour
Route #1: 36 14 19 11 18 35
Route #2: 33 1 15 2 13 17 16 12 71 6 10 5 3 8 4 7 9
Route #3: 23 26 24 25 49 51 70 50 47 48 52 45 53 46 44 43 42 27 28 22 21 30 29 20
Route #4: 31 32 34 60 61 58 59 63 62 64 65 66 67 69 37 38 40 68 39 57 56 41 55 54
Cost 241.974
